35 35
4 10
4 1
7 4
8 6
5 5
3 3
6 9
6 2
10 4
1 2
8 2
4 6
6 1
5 2
5 4
10 9
5 1
3 8
10 7
5 8
6 5
6 1
10 7
3 8
9 3
6 5
6 9
7 10
9 4
7 1
1 4
2 6
2 6
10 4
5 3
13 10 77
14 17 96
18 18 81
16 19 56
17 13 82
12 15 92
14 20 86
17 17 96
12 14 85
14 18 53
20 13 65
16 12 82
16 10 90
15 14 54
15 16 62
12 11 70
20 18 85
19 13 67
18 18 81
10 20 72
17 10 72
13 19 50
12 14 51
16 16 75
12 18 87
20 18 78
11 20 96
15 18 70
13 20 100
17 15 61
18 14 89
15 11 59
19 16 98
18 11 82
12 19 72
